p cnf 50 75
1 37 0
1 21 0
1 13 0
2 42 0
2 46 0
2 30 0
3 5 0
3 48 0
3 20 0
4 49 0
4 26 0
4 23 0
5 40 0
5 14 0
6 24 0
6 41 0
6 14 0
7 42 0
7 31 0
7 28 0
8 43 0
8 38 0
8 11 0
9 47 0
9 30 0
9 33 0
10 48 0
10 43 0
10 18 0
11 21 0
11 26 0
12 29 0
12 38 0
12 15 0
13 33 0
13 18 0
14 23 0
15 36 0
15 49 0
16 24 0
16 41 0
16 45 0
17 37 0
17 32 0
17 31 0
18 44 0
19 27 0
19 50 0
19 31 0
20 40 0
20 28 0
21 32 0
22 30 0
22 39 0
22 44 0
23 48 0
24 42 0
25 46 0
25 45 0
25 32 0
26 43 0
27 36 0
27 46 0
28 29 0
29 34 0
33 35 0
34 50 0
34 39 0
35 37 0
35 45 0
36 44 0
38 41 0
39 40 0
47 50 0
47 49 0
g -30